60

 0   0   1   1   2   2   4   5   5   5   1   1   3   4   4   4   5   6   6   2   3   4   4   6   7   4   4   5   5   7   8   8   8   5   5   5   5   6   8   8   9   6   5   6   6   6   7   9   9  10   7   7   7   6   6   7   9  10  10  10  
 0   0   1   1   2   2   4   5   5   5   1   1   3   4   4   4   5   6   6   2   3   4   4   6   7   4   4   5   5   7   8   8   8   5   5   5   5   6   8   8   9   6   5   6   6   6   7   9   9  10   7   7   7   6   6   7   9  10  10  10  
 1   1   0   0   1   1   3   4   4   4   2   2   2   3   3   3   4   5   5   3   2   3   3   5   6   5   5   4   4   6   7   7   7   6   6   4   4   5   7   7   8   7   6   5   5   5   6   8   8   9   8   8   8   7   7   6   8   9   9   9  
 1   1   0   0   1   1   3   4   4   4   2   2   2   3   3   3   4   5   5   3   2   3   3   5   6   5   5   4   4   6   7   7   7   6   6   4   4   5   7   7   8   7   6   5   5   5   6   8   8   9   8   8   8   7   7   6   8   9   9   9  
 2   2   1   1   0   0   2   3   3   3   3   3   1   2   2   2   3   4   4   4   3   2   2   4   5   6   6   3   3   5   6   6   6   7   7   5   5   4   6   6   7   8   7   6   6   6   5   7   7   8   9   9   9   8   8   7   7   8   8   8  
 2   2   1   1   0   0   2   3   3   3   3   3   1   2   2   2   3   4   4   4   3   2   2   4   5   6   6   3   3   5   6   6   6   7   7   5   5   4   6   6   7   8   7   6   6   6   5   7   7   8   9   9   9   8   8   7   7   8   8   8  
 4   4   3   3   2   2   0   1   1   1   5   5   3   2   2   2   1   2   2   6   5   4   4   2   3   8   8   5   5   3   4   4   4   9   9   7   7   6   4   4   5  10   9   8   8   8   7   5   5   6  11  11  11  10  10   9   7   6   6   6  
 5   5   4   4   3   3   1   0   0   0   6   6   4   3   3   3   2   1   1   7   6   5   5   3   2   9   9   6   6   4   3   3   3  10  10   8   8   7   5   5   4  11  10   9   9   9   8   6   6   5  12  12  12  11  11  10   8   7   7   7  
 5   5   4   4   3   3   1   0   0   0   6   6   4   3   3   3   2   1   1   7   6   5   5   3   2   9   9   6   6   4   3   3   3  10  10   8   8   7   5   5   4  11  10   9   9   9   8   6   6   5  12  12  12  11  11  10   8   7   7   7  
 5   5   4   4   3   3   1   0   0   0   6   6   4   3   3   3   2   1   1   7   6   5   5   3   2   9   9   6   6   4   3   3   3  10  10   8   8   7   5   5   4  11  10   9   9   9   8   6   6   5  12  12  12  11  11  10   8   7   7   7  
 1   1   2   2   3   3   5   6   6   6   0   0   2   3   3   3   4   5   5   1   2   3   3   5   6   3   3   4   4   6   7   7   7   4   4   4   4   5   7   7   8   5   4   5   5   5   6   8   8   9   6   6   6   5   5   6   8   9   9   9  
 1   1   2   2   3   3   5   6   6   6   0   0   2   3   3   3   4   5   5   1   2   3   3   5   6   3   3   4   4   6   7   7   7   4   4   4   4   5   7   7   8   5   4   5   5   5   6   8   8   9   6   6   6   5   5   6   8   9   9   9  
 3   3   2   2   1   1   3   4   4   4   2   2   0   1   1   1   2   3   3   3   2   1   1   3   4   5   5   2   2   4   5   5   5   6   6   4   4   3   5   5   6   7   6   5   5   5   4   6   6   7   8   8   8   7   7   6   6   7   7   7  
 4   4   3   3   2   2   2   3   3   3   3   3   1   0   0   0   1   2   2   4   3   2   2   2   3   6   6   3   3   3   4   4   4   7   7   5   5   4   4   4   5   8   7   6   6   6   5   5   5   6   9   9   9   8   8   7   5   6   6   6  
 4   4   3   3   2   2   2   3   3   3   3   3   1   0   0   0   1   2   2   4   3   2   2   2   3   6   6   3   3   3   4   4   4   7   7   5   5   4   4   4   5   8   7   6   6   6   5   5   5   6   9   9   9   8   8   7   5   6   6   6  
 4   4   3   3   2   2   2   3   3   3   3   3   1   0   0   0   1   2   2   4   3   2   2   2   3   6   6   3   3   3   4   4   4   7   7   5   5   4   4   4   5   8   7   6   6   6   5   5   5   6   9   9   9   8   8   7   5   6   6   6  
 5   5   4   4   3   3   1   2   2   2   4   4   2   1   1   1   0   1   1   5   4   3   3   1   2   7   7   4   4   2   3   3   3   8   8   6   6   5   3   3   4   9   8   7   7   7   6   4   4   5  10  10  10   9   9   8   6   5   5   5  
 6   6   5   5   4   4   2   1   1   1   5   5   3   2   2   2   1   0   0   6   5   4   4   2   1   8   8   5   5   3   2   2   2   9   9   7   7   6   4   4   3  10   9   8   8   8   7   5   5   4  11  11  11  10  10   9   7   6   6   6  
 6   6   5   5   4   4   2   1   1   1   5   5   3   2   2   2   1   0   0   6   5   4   4   2   1   8   8   5   5   3   2   2   2   9   9   7   7   6   4   4   3  10   9   8   8   8   7   5   5   4  11  11  11  10  10   9   7   6   6   6  
 2   2   3   3   4   4   6   7   7   7   1   1   3   4   4   4   5   6   6   0   1   2   2   4   5   2   2   3   3   5   6   6   6   3   3   3   3   4   6   6   7   4   3   4   4   4   5   7   7   8   5   5   5   4   4   5   7   8   8   8  
 3   3   2   2   3   3   5   6   6   6   2   2   2   3   3   3   4   5   5   1   0   1   1   3   4   3   3   2   2   4   5   5   5   4   4   2   2   3   5   5   6   5   4   3   3   3   4   6   6   7   6   6   6   5   5   4   6   7   7   7  
 4   4   3   3   2   2   4   5   5   5   3   3   1   2   2   2   3   4   4   2   1   0   0   2   3   4   4   1   1   3   4   4   4   5   5   3   3   2   4   4   5   6   5   4   4   4   3   5   5   6   7   7   7   6   6   5   5   6   6   6  
 4   4   3   3   2   2   4   5   5   5   3   3   1   2   2   2   3   4   4   2   1   0   0   2   3   4   4   1   1   3   4   4   4   5   5   3   3   2   4   4   5   6   5   4   4   4   3   5   5   6   7   7   7   6   6   5   5   6   6   6  
 6   6   5   5   4   4   2   3   3   3   5   5   3   2   2   2   1   2   2   4   3   2   2   0   1   6   6   3   3   1   2   2   2   7   7   5   5   4   2   2   3   8   7   6   6   6   5   3   3   4   9   9   9   8   8   7   5   4   4   4  
 7   7   6   6   5   5   3   2   2   2   6   6   4   3   3   3   2   1   1   5   4   3   3   1   0   7   7   4   4   2   1   1   1   8   8   6   6   5   3   3   2   9   8   7   7   7   6   4   4   3  10  10  10   9   9   8   6   5   5   5  
 4   4   5   5   6   6   8   9   9   9   3   3   5   6   6   6   7   8   8   2   3   4   4   6   7   0   0   3   3   5   6   6   6   1   1   3   3   4   6   6   7   2   3   4   4   4   5   7   7   8   3   3   3   4   4   5   7   8   8   8  
 4   4   5   5   6   6   8   9   9   9   3   3   5   6   6   6   7   8   8   2   3   4   4   6   7   0   0   3   3   5   6   6   6   1   1   3   3   4   6   6   7   2   3   4   4   4   5   7   7   8   3   3   3   4   4   5   7   8   8   8  
 5   5   4   4   3   3   5   6   6   6   4   4   2   3   3   3   4   5   5   3   2   1   1   3   4   3   3   0   0   2   3   3   3   4   4   2   2   1   3   3   4   5   4   3   3   3   2   4   4   5   6   6   6   5   5   4   4   5   5   5  
 5   5   4   4   3   3   5   6   6   6   4   4   2   3   3   3   4   5   5   3   2   1   1   3   4   3   3   0   0   2   3   3   3   4   4   2   2   1   3   3   4   5   4   3   3   3   2   4   4   5   6   6   6   5   5   4   4   5   5   5  
 7   7   6   6   5   5   3   4   4   4   6   6   4   3   3   3   2   3   3   5   4   3   3   1   2   5   5   2   2   0   1   1   1   6   6   4   4   3   1   1   2   7   6   5   5   5   4   2   2   3   8   8   8   7   7   6   4   3   3   3  
 8   8   7   7   6   6   4   3   3   3   7   7   5   4   4   4   3   2   2   6   5   4   4   2   1   6   6   3   3   1   0   0   0   7   7   5   5   4   2   2   1   8   7   6   6   6   5   3   3   2   9   9   9   8   8   7   5   4   4   4  
 8   8   7   7   6   6   4   3   3   3   7   7   5   4   4   4   3   2   2   6   5   4   4   2   1   6   6   3   3   1   0   0   0   7   7   5   5   4   2   2   1   8   7   6   6   6   5   3   3   2   9   9   9   8   8   7   5   4   4   4  
 8   8   7   7   6   6   4   3   3   3   7   7   5   4   4   4   3   2   2   6   5   4   4   2   1   6   6   3   3   1   0   0   0   7   7   5   5   4   2   2   1   8   7   6   6   6   5   3   3   2   9   9   9   8   8   7   5   4   4   4  
 5   5   6   6   7   7   9  10  10  10   4   4   6   7   7   7   8   9   9   3   4   5   5   7   8   1   1   4   4   6   7   7   7   0   0   2   2   3   5   5   6   1   2   3   3   3   4   6   6   7   2   2   2   3   3   4   6   7   7   7  
 5   5   6   6   7   7   9  10  10  10   4   4   6   7   7   7   8   9   9   3   4   5   5   7   8   1   1   4   4   6   7   7   7   0   0   2   2   3   5   5   6   1   2   3   3   3   4   6   6   7   2   2   2   3   3   4   6   7   7   7  
 5   5   4   4   5   5   7   8   8   8   4   4   4   5   5   5   6   7   7   3   2   3   3   5   6   3   3   2   2   4   5   5   5   2   2   0   0   1   3   3   4   3   2   1   1   1   2   4   4   5   4   4   4   3   3   2   4   5   5   5  
 5   5   4   4   5   5   7   8   8   8   4   4   4   5   5   5   6   7   7   3   2   3   3   5   6   3   3   2   2   4   5   5   5   2   2   0   0   1   3   3   4   3   2   1   1   1   2   4   4   5   4   4   4   3   3   2   4   5   5   5  
 6   6   5   5   4   4   6   7   7   7   5   5   3   4   4   4   5   6   6   4   3   2   2   4   5   4   4   1   1   3   4   4   4   3   3   1   1   0   2   2   3   4   3   2   2   2   1   3   3   4   5   5   5   4   4   3   3   4   4   4  
 8   8   7   7   6   6   4   5   5   5   7   7   5   4   4   4   3   4   4   6   5   4   4   2   3   6   6   3   3   1   2   2   2   5   5   3   3   2   0   0   1   6   5   4   4   4   3   1   1   2   7   7   7   6   6   5   3   2   2   2  
 8   8   7   7   6   6   4   5   5   5   7   7   5   4   4   4   3   4   4   6   5   4   4   2   3   6   6   3   3   1   2   2   2   5   5   3   3   2   0   0   1   6   5   4   4   4   3   1   1   2   7   7   7   6   6   5   3   2   2   2  
 9   9   8   8   7   7   5   4   4   4   8   8   6   5   5   5   4   3   3   7   6   5   5   3   2   7   7   4   4   2   1   1   1   6   6   4   4   3   1   1   0   7   6   5   5   5   4   2   2   1   8   8   8   7   7   6   4   3   3   3  
 6   6   7   7   8   8  10  11  11  11   5   5   7   8   8   8   9  10  10   4   5   6   6   8   9   2   2   5   5   7   8   8   8   1   1   3   3   4   6   6   7   0   1   2   2   2   3   5   5   6   1   1   1   2   2   3   5   6   6   6  
 5   5   6   6   7   7   9  10  10  10   4   4   6   7   7   7   8   9   9   3   4   5   5   7   8   3   3   4   4   6   7   7   7   2   2   2   2   3   5   5   6   1   0   1   1   1   2   4   4   5   2   2   2   1   1   2   4   5   5   5  
 6   6   5   5   6   6   8   9   9   9   5   5   5   6   6   6   7   8   8   4   3   4   4   6   7   4   4   3   3   5   6   6   6   3   3   1   1   2   4   4   5   2   1   0   0   0   1   3   3   4   3   3   3   2   2   1   3   4   4   4  
 6   6   5   5   6   6   8   9   9   9   5   5   5   6   6   6   7   8   8   4   3   4   4   6   7   4   4   3   3   5   6   6   6   3   3   1   1   2   4   4   5   2   1   0   0   0   1   3   3   4   3   3   3   2   2   1   3   4   4   4  
 6   6   5   5   6   6   8   9   9   9   5   5   5   6   6   6   7   8   8   4   3   4   4   6   7   4   4   3   3   5   6   6   6   3   3   1   1   2   4   4   5   2   1   0   0   0   1   3   3   4   3   3   3   2   2   1   3   4   4   4  
 7   7   6   6   5   5   7   8   8   8   6   6   4   5   5   5   6   7   7   5   4   3   3   5   6   5   5   2   2   4   5   5   5   4   4   2   2   1   3   3   4   3   2   1   1   1   0   2   2   3   4   4   4   3   3   2   2   3   3   3  
 9   9   8   8   7   7   5   6   6   6   8   8   6   5   5   5   4   5   5   7   6   5   5   3   4   7   7   4   4   2   3   3   3   6   6   4   4   3   1   1   2   5   4   3   3   3   2   0   0   1   6   6   6   5   5   4   2   1   1   1  
 9   9   8   8   7   7   5   6   6   6   8   8   6   5   5   5   4   5   5   7   6   5   5   3   4   7   7   4   4   2   3   3   3   6   6   4   4   3   1   1   2   5   4   3   3   3   2   0   0   1   6   6   6   5   5   4   2   1   1   1  
10  10   9   9   8   8   6   5   5   5   9   9   7   6   6   6   5   4   4   8   7   6   6   4   3   8   8   5   5   3   2   2   2   7   7   5   5   4   2   2   1   6   5   4   4   4   3   1   1   0   7   7   7   6   6   5   3   2   2   2  
 7   7   8   8   9   9  11  12  12  12   6   6   8   9   9   9  10  11  11   5   6   7   7   9  10   3   3   6   6   8   9   9   9   2   2   4   4   5   7   7   8   1   2   3   3   3   4   6   6   7   0   0   0   1   1   2   4   5   5   5  
 7   7   8   8   9   9  11  12  12  12   6   6   8   9   9   9  10  11  11   5   6   7   7   9  10   3   3   6   6   8   9   9   9   2   2   4   4   5   7   7   8   1   2   3   3   3   4   6   6   7   0   0   0   1   1   2   4   5   5   5  
 7   7   8   8   9   9  11  12  12  12   6   6   8   9   9   9  10  11  11   5   6   7   7   9  10   3   3   6   6   8   9   9   9   2   2   4   4   5   7   7   8   1   2   3   3   3   4   6   6   7   0   0   0   1   1   2   4   5   5   5  
 6   6   7   7   8   8  10  11  11  11   5   5   7   8   8   8   9  10  10   4   5   6   6   8   9   4   4   5   5   7   8   8   8   3   3   3   3   4   6   6   7   2   1   2   2   2   3   5   5   6   1   1   1   0   0   1   3   4   4   4  
 6   6   7   7   8   8  10  11  11  11   5   5   7   8   8   8   9  10  10   4   5   6   6   8   9   4   4   5   5   7   8   8   8   3   3   3   3   4   6   6   7   2   1   2   2   2   3   5   5   6   1   1   1   0   0   1   3   4   4   4  
 7   7   6   6   7   7   9  10  10  10   6   6   6   7   7   7   8   9   9   5   4   5   5   7   8   5   5   4   4   6   7   7   7   4   4   2   2   3   5   5   6   3   2   1   1   1   2   4   4   5   2   2   2   1   1   0   2   3   3   3  
 9   9   8   8   7   7   7   8   8   8   8   8   6   5   5   5   6   7   7   7   6   5   5   5   6   7   7   4   4   4   5   5   5   6   6   4   4   3   3   3   4   5   4   3   3   3   2   2   2   3   4   4   4   3   3   2   0   1   1   1  
10  10   9   9   8   8   6   7   7   7   9   9   7   6   6   6   5   6   6   8   7   6   6   4   5   8   8   5   5   3   4   4   4   7   7   5   5   4   2   2   3   6   5   4   4   4   3   1   1   2   5   5   5   4   4   3   1   0   0   0  
10  10   9   9   8   8   6   7   7   7   9   9   7   6   6   6   5   6   6   8   7   6   6   4   5   8   8   5   5   3   4   4   4   7   7   5   5   4   2   2   3   6   5   4   4   4   3   1   1   2   5   5   5   4   4   3   1   0   0   0  
10  10   9   9   8   8   6   7   7   7   9   9   7   6   6   6   5   6   6   8   7   6   6   4   5   8   8   5   5   3   4   4   4   7   7   5   5   4   2   2   3   6   5   4   4   4   3   1   1   2   5   5   5   4   4   3   1   0   0   0  

 0  24  17  24  42   6  26  15  17  35  35  18  43  33  33  15  25  16  24  43  25  33  25  35  25  35  43  25  25  15  25  35  25  35  25  16  26  25  16  26   7  17  25  25  26  15  45  25  15  15  18  25  25  32  27  36  25  25  25  15  
 0   0  25  24  27  36  19  13  29  13  36  42  22  26  23  21  25  29  21  16  28  33  25  22  25  21  20  19  31  17  25  29  33  13  34  19  42  29  29  19  16  32  33  34  25  17  25  24  27  25  33  37  24  24  22  17  39  21  21  25  
 0   0   0  25  39  25  18  25  17  25  11  32  45  25  24  25  25  26  32  32  32  33  25  25  25  37  26  25  25  25  26  25  25  32  18  25  18  24  10  25  24  17  26  18  25  18  25  25  25  39  17  33  25  33  32  25  18  25  25  25  
 0   0   0   0  19  18  26  33  25  25  16  32  25  25  34  16  19  25  25  25  25  25  31  31  25  25  19  16  22  25  25  25  25  25  31  24  26  25  26  26  19  40  16  25  19  25  26  16  38  25  35  35  25  18  25  34  31  26  25  25  
 0   0   0   0   0  21  40  25  33  23  38  23  11  25  38  35  19  37  24  10  27   9  31  31  25  18   5  18  37  33  19  25  25  23  30  34  37  24  50  25  18  39  11  11  20  33  26  25  45  19  33  20  25  10  16  24  36  32   8  35  
 0   0   0   0   0   0  34  29  21  43  25  10  25  33  41  10  19  20  29  25   7  23  31  31  19  38  19  25  31  33  34  31  25  39  29  24  26  19  24  17  15  31  20  17  19  33  43  25  24  25  26  21  25  18  31  43  23  31  39  15  
 0   0   0   0   0   0   0  26  25  17  18  31  32  24  17  25  25  25  25  25  33  33  25  26  25  32  24  32  25  17  32  26  24  18  25  26  17  25  17  24  25  25  40  33  25  17  25  26  17  32  24  24  26  26  23  17  26  17  32  25  
 0   0   0   0   0   0   0   0  29  25  35  33  35  26  25  21  25  29  21  35  35  25  25  27  25  31  36  18  25  15  25  34  33  21  26  25  32  25  25  18   4  32  25  32  25  15  34  24  15  15  25  37  24  25  30  25  25  34  11  25  
 0   0   0   0   0   0   0   0   0  25  25  25  33  25  25  29  25  21  29  33  25  33  25  25  25  29  33  25  25  25  25  25  25  21  25  17  25  25  17  25  29  17  25  25  25  25  25  25  25  25  17  21  25  33  21  25  25  25  29  25  
 0   0   0   0   0   0   0   0   0   0  25  33  25  25  17  35  25  35  25  25  43  33  25  25  25  25  25  21  25  17  25  25  25   7  33  25  25  29  35  25  29  25  33  33  25  17  25  25  21  25  29  25  25  25   7   7  33  25  15  35  
 0   0   0   0   0   0   0   0   0   0   0  32  22  25  28  16  25  25  32  21  27  25  25  10  25  22  14  11  10  35  25  10  25  32  18  37  12  25  18  25  40  34  16  24  25  28  15  16  29  49  34  41  25  25  32  34  12  39  35  25  
 0   0   0   0   0   0   0   0   0   0   0   0  25  32  41  25  31  25  18  25  10  23  19  27  19  25  37  39  19  33  32  32  17  34  16  19  17  19  32  31  30  12  18  17  31  40  33  26  21  18  24  22  26  32  24  33  11  23  32  25  
 0   0   0   0   0   0   0   0   0   0   0   0   0  25  25  25  25  25  25   4  15  10  32  15  25   3   0  18  25  44  11  15  25  25  32  40  36  32  43  25  45  26  18  18  25  28  15  25  35  27  36  25  18  25  25  25  39  32  19  25  
 0   0   0   0   0   0   0   0   0   0   0   0   0   0  17  25  25  25  25  25  25  25  25  26  25  25  24  25  25  25  25  26  24  26  24  25  25  25  17  25  33  25  25  25  25  25  18  26  25  25  25  24  26  25  32  25  25  24  25  25  
 0   0   0   0   0   0   0   0   0   0   0   0   0   0   0  34  25  26  25  30  33  33  25  25  25  25  31  34  28  17  26  25  25  17  33  26  19  24  17  25  32  16  43  39  25  17  17  34  11  25  16  17  25  25  25   8  27  16  25  25  
 0   0   0   0   0   0   0   0   0   0   0   0   0   0   0   0  25  28  21  25  15  25  25  25  25  30  25  16  16  25  34  25  25  39  25  25  25  25  15  16  21  34  25  25  25  25  34  16  16  25  34  38  25  25  39  44  25  34  31  15  
 0   0   0   0   0   0   0   0   0   0   0   0   0   0   0   0   0  25  25  25  25  25  31  31  25  25  19  25  31  25  25  25  25  25  31  25  25  25  25  25  19  31  25  25  19  25  25  25  31  25  25  19  25  19  25  25  31  25  25  25  
 0   0   0   0   0   0   0   0   0   0   0   0   0   0   0   0   0   0  30  26  15  25  25  25  25  20  25  25  25  25  15  25  25  31  25  24  25  26  15  34  30  25  15  25  24  25  15  25  34  25  25  20  25  25  31  34  25  25  39  15  
 0   0   0   0   0   0   0   0   0   0   0   0   0   0   0   0   0   0   0  25  18  25  25  25  25  21  32  32  25  25  32  25  25  22  25  18  25  25  25  25  21  25  32  32  26  32  26  25  25  18  25  22  25  25  29  26  25  18  28  25  
 0   0   0   0   0   0   0   0   0   0   0   0   0   0   0   0   0   0   0   0  15  17  25  15  25  15   1  25  31  35  26  15  25  25  25  34  34  24  36  25  37  33  26  19  25  35  15  25  41  35  36  26  25  17  25  25  31  25  35  25  
 0   0   0   0   0   0   0   0   0   0   0   0   0   0   0   0   0   0   0   0   0  17  25  20  25  15  14  37  25  43  32  20  25  36  17  13  25  25  15  25  30  25  24  24  25  50  15  25  43  28  25  18  25  33  43  43  17  13  52  15  
 0   0   0   0   0   0   0   0   0   0   0   0   0   0   0   0   0   0   0   0   0   0  32  25  31  25  10  25  25  33  18  19  25  33  11  40  25  38  33  25  32  26  23  10  25  26  25  25  39  25  33  19  18  24  40  33  24  19  25  25  
 0   0   0   0   0   0   0   0   0   0   0   0   0   0   0   0   0   0   0   0   0   0   0  19  25  25  38  25  19  25  32  25  25  25  19  18  25  18  25  25  24  26  25  32  31  32  25  25  19  25  25  31  32  24  18  25  12  25  25  25  
 0   0   0   0   0   0   0   0   0   0   0   0   0   0   0   0   0   0   0   0   0   0   0   0  25  15  22  13  19  35  25   9  33  17  20  30  32  25  25  18  39  26  25  32  31  35  14  24  29  35  25  39  24  31  26  25  19  31  35  25  
 0   0   0   0   0   0   0   0   0   0   0   0   0   0   0   0   0   0   0   0   0   0   0   0   0  25  25  25  25  25  25  31  25  25  31  25  25  19  25  16  25  25  19  25  25  25  25  34  19  25  25  31  25  25  25  25  25  31  25  25  
 0   0   0   0   0   0   0   0   0   0   0   0   0   0   0   0   0   0   0   0   0   0   0   0   0   0  15  18  25  35   9  15  25  29  32  25  32  25  32  34  31  25   9  25  25  35   6  25  44  28  25  29  25  25  22  25  32  32  24  25  
 0   0   0   0   0   0   0   0   0   0   0   0   0   0   0   0   0   0   0   0   0   0   0   0   0   0   0  18  37  35  11  16  24  33  30  47  31  32  33  25  36  32  18   5  19  21  16  26  47  42  33  25  19  26  31  25  44  31  28  25  
 0   0   0   0   0   0   0   0   0   0   0   0   0   0   0   0   0   0   0   0   0   0   0   0   0   0   0   0  16  25  11  20  32  25  32  37  39  29  32  18  27  41   2  25  25  18  25  16  29  25  38  48  25  25  18  34  32  53  11  25  
 0   0   0   0   0   0   0   0   0   0   0   0   0   0   0   0   0   0   0   0   0   0   0   0   0   0   0   0   0  25  25  25  25  25  19  25  19  25  25  25  31  28  16  31  31  25  25  16  13  25  34  40  25  31  25  34  13  34  25  25  
 0   0   0   0   0   0   0   0   0   0   0   0   0   0   0   0   0   0   0   0   0   0   0   0   0   0   0   0   0   0  25  35  25  17  33  25  25  25  25  25  15  25  33  33  25   7  35  25   7  15  25  25  25  25  17  17  33  25  24  25  
 0   0   0   0   0   0   0   0   0   0   0   0   0   0   0   0   0   0   0   0   0   0   0   0   0   0   0   0   0   0   0  25  25  32  32  38  32  33  32  34  33  18   1  11  25  11  16  25  34  25  25  31  18  32  25  25  39  39  11  25  
 0   0   0   0   0   0   0   0   0   0   0   0   0   0   0   0   0   0   0   0   0   0   0   0   0   0   0   0   0   0   0   0  26  24  20  30  25  31  25  25  40  25  31  25  25  35  14  24  41  35  25  20  24  25  26  25  25  25  35  25  
 0   0   0   0   0   0   0   0   0   0   0   0   0   0   0   0   0   0   0   0   0   0   0   0   0   0   0   0   0   0   0   0   0  33  24  25  18  25  25  32  32  18  25  18  25  25  26  26  25  25  25  17  26  25  24  25  25  24  25  25  
 0   0   0   0   0   0   0   0   0   0   0   0   0   0   0   0   0   0   0   0   0   0   0   0   0   0   0   0   0   0   0   0   0   0  34  18  32  25  35  18  22  32  40  47  25  24  24  24  17  18  25  22  24  25   4   7  33  19  26  35  
 0   0   0   0   0   0   0   0   0   0   0   0   0   0   0   0   0   0   0   0   0   0   0   0   0   0   0   0   0   0   0   0   0   0   0  25  18  31  18  25  31  19  30  17  31  33  26  26  33  32  25  24  26  31  39  33   4  11  32  25  
 0   0   0   0   0   0   0   0   0   0   0   0   0   0   0   0   0   0   0   0   0   0   0   0   0   0   0   0   0   0   0   0   0   0   0   0  26  19  18  26  14  24  31  39  25  39  26  25  25  18  18  17  32  25  18  25  18  13  32  25  
 0   0   0   0   0   0   0   0   0   0   0   0   0   0   0   0   0   0   0   0   0   0   0   0   0   0   0   0   0   0   0   0   0   0   0   0   0  25  14  31  29  18  32  24  25  25  24  25  19  33  21  18  25  25  32  25  12  18  32  25  
 0   0   0   0   0   0   0   0   0   0   0   0   0   0   0   0   0   0   0   0   0   0   0   0   0   0   0   0   0   0   0   0   0   0   0   0   0   0  25  25  13  32  20  32  25  32  25  25  15  25  21  32  32  18  18  25  18  31  25  25  
 0   0   0   0   0   0   0   0   0   0   0   0   0   0   0   0   0   0   0   0   0   0   0   0   0   0   0   0   0   0   0   0   0   0   0   0   0   0   0  24  30  17  32  25  25  25  16  25  25  32  13  25  25  34  50  35  18  18  42  15  
 0   0   0   0   0   0   0   0   0   0   0   0   0   0   0   0   0   0   0   0   0   0   0   0   0   0   0   0   0   0   0   0   0   0   0   0   0   0   0   0  18  32  34  32  25  25  33  30  16  25  24  32  29  26  25  25  25  25  25  25  
 0   0   0   0   0   0   0   0   0   0   0   0   0   0   0   0   0   0   0   0   0   0   0   0   0   0   0   0   0   0   0   0   0   0   0   0   0   0   0   0   0  45  26  39  19  22  43  25  17  15  18  31  32  12  14  25  24  20  11  25  
 0   0   0   0   0   0   0   0   0   0   0   0   0   0   0   0   0   0   0   0   0   0   0   0   0   0   0   0   0   0   0   0   0   0   0   0   0   0   0   0   0   0  34  11  31  18  25  34  19  25   8  15  18  46  32  16  26  16  25  25  
 0   0   0   0   0   0   0   0   0   0   0   0   0   0   0   0   0   0   0   0   0   0   0   0   0   0   0   0   0   0   0   0   0   0   0   0   0   0   0   0   0   0   0  10  25  26  16  16  36  25  34  46  25  25  26  42  24  54  11  25  
 0   0   0   0   0   0   0   0   0   0   0   0   0   0   0   0   0   0   0   0   0   0   0   0   0   0   0   0   0   0   0   0   0   0   0   0   0   0   0   0   0   0   0   0  25  19  25  25  39  32  25  25  18  32  40  33  30  32  18  25  
 0   0   0   0   0   0   0   0   0   0   0   0   0   0   0   0   0   0   0   0   0   0   0   0   0   0   0   0   0   0   0   0   0   0   0   0   0   0   0   0   0   0   0   0   0  25  24  25  31  25  25  19  25  19  25  24  31  25  25  25  
 0   0   0   0   0   0   0   0   0   0   0   0   0   0   0   0   0   0   0   0   0   0   0   0   0   0   0   0   0   0   0   0   0   0   0   0   0   0   0   0   0   0   0   0   0   0  35  25   7  22  25  32  18  32  24  17  40  32   8  25  
 0   0   0   0   0   0   0   0   0   0   0   0   0   0   0   0   0   0   0   0   0   0   0   0   0   0   0   0   0   0   0   0   0   0   0   0   0   0   0   0   0   0   0   0   0   0   0  24  44  35  24  26  24  26  34  24  25  26  35  25  
 0   0   0   0   0   0   0   0   0   0   0   0   0   0   0   0   0   0   0   0   0   0   0   0   0   0   0   0   0   0   0   0   0   0   0   0   0   0   0   0   0   0   0   0   0   0   0   0  25  25  34  35  28  25  26  34  25  35  25  25  
 0   0   0   0   0   0   0   0   0   0   0   0   0   0   0   0   0   0   0   0   0   0   0   0   0   0   0   0   0   0   0   0   0   0   0   0   0   0   0   0   0   0   0   0   0   0   0   0   0  15  21  30  25  31  17  17  21  31  15  25  
 0   0   0   0   0   0   0   0   0   0   0   0   0   0   0   0   0   0   0   0   0   0   0   0   0   0   0   0   0   0   0   0   0   0   0   0   0   0   0   0   0   0   0   0   0   0   0   0   0   0  25  18  25  26  18  25  32  25  15  25  
 0   0   0   0   0   0   0   0   0   0   0   0   0   0   0   0   0   0   0   0   0   0   0   0   0   0   0   0   0   0   0   0   0   0   0   0   0   0   0   0   0   0   0   0   0   0   0   0   0   0   0  16  25  34  25  16  25  16  25  25  
 0   0   0   0   0   0   0   0   0   0   0   0   0   0   0   0   0   0   0   0   0   0   0   0   0   0   0   0   0   0   0   0   0   0   0   0   0   0   0   0   0   0   0   0   0   0   0   0   0   0   0   0  26  19  20  16  31   2  36  25  
 0   0   0   0   0   0   0   0   0   0   0   0   0   0   0   0   0   0   0   0   0   0   0   0   0   0   0   0   0   0   0   0   0   0   0   0   0   0   0   0   0   0   0   0   0   0   0   0   0   0   0   0   0  32  33  25  32  26  25  25  
 0   0   0   0   0   0   0   0   0   0   0   0   0   0   0   0   0   0   0   0   0   0   0   0   0   0   0   0   0   0   0   0   0   0   0   0   0   0   0   0   0   0   0   0   0   0   0   0   0   0   0   0   0   0  18  25  24  25  25  25  
 0   0   0   0   0   0   0   0   0   0   0   0   0   0   0   0   0   0   0   0   0   0   0   0   0   0   0   0   0   0   0   0   0   0   0   0   0   0   0   0   0   0   0   0   0   0   0   0   0   0   0   0   0   0   0   7  33  31  12  35  
 0   0   0   0   0   0   0   0   0   0   0   0   0   0   0   0   0   0   0   0   0   0   0   0   0   0   0   0   0   0   0   0   0   0   0   0   0   0   0   0   0   0   0   0   0   0   0   0   0   0   0   0   0   0   0   0  33  16  15  35  
 0   0   0   0   0   0   0   0   0   0   0   0   0   0   0   0   0   0   0   0   0   0   0   0   0   0   0   0   0   0   0   0   0   0   0   0   0   0   0   0   0   0   0   0   0   0   0   0   0   0   0   0   0   0   0   0   0  18  32  25  
 0   0   0   0   0   0   0   0   0   0   0   0   0   0   0   0   0   0   0   0   0   0   0   0   0   0   0   0   0   0   0   0   0   0   0   0   0   0   0   0   0   0   0   0   0   0   0   0   0   0   0   0   0   0   0   0   0   0  39  25  
 0   0   0   0   0   0   0   0   0   0   0   0   0   0   0   0   0   0   0   0   0   0   0   0   0   0   0   0   0   0   0   0   0   0   0   0   0   0   0   0   0   0   0   0   0   0   0   0   0   0   0   0   0   0   0   0   0   0   0  35  
 0   0   0   0   0   0   0   0   0   0   0   0   0   0   0   0   0   0   0   0   0   0   0   0   0   0   0   0   0   0   0   0   0   0   0   0   0   0   0   0   0   0   0   0   0   0   0   0   0   0   0   0   0   0   0   0   0   0   0   0  
